3 3 2
25 1 39 0 4 1 2 2 44 0 9 1 24 0 18 1 33 0 23 2 1 1 39 0 48 2 2 1 41 0 8 2 38 0 24 2 43 0 39 2 38 0 9 1 36 0 35 2 41 1 23 
25 0 33 1 48 2 27 0 49 1 5 0 44 2 26 0 8 2 1 1 19 0 48 2 37 0 20 1 16 2 5 1 43 2 23 0 7 1 8 2 39 1 40 0 3 1 13 0 30 2 41 
25 1 22 0 29 1 6 2 7 0 15 1 30 2 17 0 21 2 33 0 45 1 18 2 35 1 3 2 30 1 20 0 4 2 25 0 6 1 34 2 15 0 20 1 11 0 31 1 3 2 26 

-------------
